toybox/dimacs/toybox-2020-02-17_04-11-07.dimacs
c 1 CONFIG_HELP
c 2 CONFIG_DHCPD
c 3 CONFIG_CHCON
c 4 CONFIG_TOYBOX_LIBCRYPTO
c 5 CONFIG_TCPSVD
c 6 CONFIG_W
c 7 CONFIG_TIME
c 8 CONFIG_KLOGD_SOURCE_RING_BUFFER
c 9 CONFIG_SULOGIN
c 10 CONFIG_ID_Z
c 11 CONFIG_FGREP
c 12 CONFIG_SENDEVENT
c 13 CONFIG_MDEV_CONF
c 14 CONFIG_TOYBOX_PRLIMIT
c 15 CONFIG_NBD_CLIENT
c 16 CONFIG_LOAD_POLICY
c 17 CONFIG_MKDIR_Z
c 18 CONFIG_UNSHARE
c 19 CONFIG_TOYBOX_UID_SYS
c 20 CONFIG_EGREP
c 21 CONFIG_ID
c 22 CONFIG_SETENFORCE
c 23 CONFIG_RESTORECON
c 24 CONFIG_BOOTCHARTD
c 25 CONFIG_LOGIN
c 26 CONFIG_KILL
c 27 CONFIG_ULIMIT
c 28 CONFIG_FSFREEZE
c 29 CONFIG_GREP
c 30 CONFIG_TOYBOX_ICONV
c 31 CONFIG_MKNOD_Z
c 32 CONFIG_LOG
c 33 CONFIG_MKE2FS_EXTENDED
c 34 CONFIG_WHO
c 35 CONFIG_TOYBOX_FIFREEZE
c 36 CONFIG_CP_PRESERVE
c 37 CONFIG_CP
c 38 CONFIG_RUNCON
c 39 CONFIG_LSPCI_TEXT
c 40 CONFIG_TOYBOX_LSM_NONE
c 41 CONFIG_MKE2FS_GEN
c 42 CONFIG_CAT
c 43 CONFIG_TOYBOX_SHADOW
c 44 CONFIG_SHA256SUM
c 45 CONFIG_TOYBOX_SELINUX
c 46 CONFIG_KLOGD
c 47 CONFIG_MKE2FS
c 48 CONFIG_LSPCI
c 49 CONFIG_OPENVT
c 50 CONFIG_ICONV
c 51 CONFIG_GETENFORCE
c 52 CONFIG_MKFIFO_Z
c 53 CONFIG_TOYBOX_FORK
c 54 CONFIG_TOYBOX_HELP
c 55 CONFIG_TOYBOX_FLOAT
c 56 CONFIG_MKNOD
c 57 CONFIG_PASSWD
c 58 CONFIG_SHA224SUM
c 59 CONFIG_TOYBOX_UID_USR
c 60 CONFIG_TOYBOX_CONTAINER
c 61 CONFIG_TOYBOX_FORCE_NOMMU
c 62 CONFIG_NETCAT_LISTEN
c 63 CONFIG_MKE2FS_LABEL
c 64 CONFIG_SEQ
c 65 CONFIG_NSENTER
c 66 CONFIG_SORT_FLOAT
c 67 CONFIG_SU
c 68 CONFIG_CD
c 69 CONFIG_MKPASSWD
c 70 CONFIG_TOYBOX_ANDROID_SCHEDPOLICY
c 71 CONFIG_PASSWD_SAD
c 72 CONFIG_EXIT
c 73 CONFIG_NETCAT
c 74 CONFIG_SHA384SUM
c 75 CONFIG_UPTIME
c 76 CONFIG_CRONTAB
c 77 CONFIG_MKDIR
c 78 CONFIG_MKFIFO
c 79 CONFIG_TOYBOX_ON_ANDROID
c 80 CONFIG_TOYBOX
c 81 CONFIG_TOYBOX_SMACK
c 82 CONFIG_MKE2FS_JOURNAL
c 83 CONFIG_TOYBOX_UTMPX
c 84 CONFIG_SHA512SUM
c 85 CONFIG_CAT_V
c 86 CONFIG_DEBUG_DHCP
c 87 CONFIG_TOYBOX_GETRANDOM
c 88 CONFIG_MDEV
c 89 CONFIG_KILLALL5
c 90 CONFIG_TOYBOX_HELP_DASHDASH
c 91 __Root__
p cnf 91 176
91 0
91 -78 0
91 -52 0
91 -45 0
91 -51 0
91 -59 0
91 -57 0
91 -71 0
91 -58 0
91 -4 0
91 -84 0
91 -77 0
91 -17 0
91 -40 0
91 -3 0
91 -47 0
91 -82 0
91 -54 0
91 -90 0
91 -10 0
91 -21 0
91 -33 0
91 -60 0
91 -38 0
91 -68 0
91 -20 0
91 -29 0
91 -41 0
91 -13 0
91 -88 0
91 -65 0
91 -53 0
91 -24 0
91 -80 0
91 -61 0
91 -14 0
91 -27 0
91 -81 0
91 -64 0
91 -55 0
91 -5 0
91 -6 0
91 -83 0
91 -19 0
91 -43 0
91 -9 0
91 -63 0
91 -11 0
91 -85 0
91 -42 0
91 -76 0
91 -28 0
91 -35 0
91 -37 0
91 -36 0
91 -34 0
91 -66 0
91 -87 0
91 -44 0
91 -30 0
91 -50 0
91 -73 0
91 -62 0
91 -31 0
91 -56 0
91 -16 0
91 -70 0
91 -39 0
91 -48 0
91 -25 0
91 -26 0
91 -89 0
91 -69 0
91 -79 0
91 -12 0
91 -22 0
91 -46 0
91 -8 0
91 -1 0
91 -2 0
91 -86 0
91 -7 0
91 -74 0
91 -67 0
91 -18 0
91 -72 0
91 -23 0
91 -75 0
91 -15 0
91 -49 0
91 -32 0
78 -52 0
45 -51 0
59 0
57 -71 0
-58 4 0
-84 4 0
-77 17 40 0
45 -3 0
47 -82 0
54 -90 0
10 -21 40 0
-33 47 0
60 0
-38 45 0
-68 0
20 -29 0
47 -41 0
-13 88 0
-65 60 0
53 -24 0
80 0
61 53 0
14 -27 0
-40 -81 0
-64 55 0
-10 21 0
53 -5 0
-6 83 0
19 0
43 -9 0
47 -63 0
-11 29 0
-85 42 0
53 -76 0
-28 35 0
37 -36 0
-34 83 0
-55 66 0
43 -57 0
87 0
-44 4 0
30 0
77 -17 0
-50 30 0
-17 -40 0
-45 -81 0
73 -62 0
43 0
31 -56 40 0
14 0
-16 45 0
-70 0
-39 48 0
-31 -40 0
-52 -40 0
43 -25 0
-61 -53 0
26 -89 0
-10 -40 0
-69 -79 0
-12 79 0
45 -22 0
-31 56 0
46 -8 0
54 -1 0
2 -86 0
55 -7 0
-20 29 0
-74 4 0
43 -67 0
-18 60 0
-72 0
-79 0
83 0
-45 -40 0
11 -29 0
45 -23 0
35 0
-78 52 40 0
-75 83 0
55 -66 0
53 -15 0
-49 53 0
45 40 81 0
79 -32 0
